Maximize

x_0_0 + x_0_1 + x_0_2 + x_0_3 + x_1_0 + x_1_1 + x_1_2 + x_1_3 + x_2_0 + x_2_1 + x_2_2 + x_2_3 + x_3_0 + x_3_1 + x_3_2 + x_3_3 + x_4_0 + x_4_1 + x_4_2 + x_4_3 + x_5_0 + x_5_1 + x_5_2 + x_5_3 + x_6_0 + x_6_1 + x_6_2 + x_6_3 + x_7_0 + x_7_1 + x_7_2 + x_7_3 + x_8_0 + x_8_1 + x_8_2 + x_8_3


Subject To

a0: x_0_0 + x_0_1 + x_0_2 + x_0_3 <= 1
a1: x_1_0 + x_1_1 + x_1_2 + x_1_3 <= 1
a2: x_2_0 + x_2_1 + x_2_2 + x_2_3 <= 1
a3: x_3_0 + x_3_1 + x_3_2 + x_3_3 <= 1
a4: x_4_0 + x_4_1 + x_4_2 + x_4_3 <= 1
a5: x_5_0 + x_5_1 + x_5_2 + x_5_3 <= 1
a6: x_6_0 + x_6_1 + x_6_2 + x_6_3 <= 1
a7: x_7_0 + x_7_1 + x_7_2 + x_7_3 <= 1
a8: x_8_0 + x_8_1 + x_8_2 + x_8_3 <= 1
b0: 30 x_0_0 + 20 x_1_0 + 15 x_2_0 + 10 x_3_0 + 35 x_4_0 + 25 x_5_0 + 12 x_6_0 + 28 x_7_0 + 15 x_8_0 <= 60
b1: 30 x_0_1 + 20 x_1_1 + 15 x_2_1 + 10 x_3_1 + 35 x_4_1 + 25 x_5_1 + 12 x_6_1 + 28 x_7_1 + 15 x_8_1 <= 40
b2: 30 x_0_2 + 20 x_1_2 + 15 x_2_2 + 10 x_3_2 + 35 x_4_2 + 25 x_5_2 + 12 x_6_2 + 28 x_7_2 + 15 x_8_2 <= 30
b3: 30 x_0_3 + 20 x_1_3 + 15 x_2_3 + 10 x_3_3 + 35 x_4_3 + 25 x_5_3 + 12 x_6_3 + 28 x_7_3 + 15 x_8_3 <= 50
c0: x_0_0 + x_1_0 <= 1
c1: x_0_1 + x_1_1 <= 1
c2: x_0_2 + x_1_2 <= 1
c3: x_0_3 + x_1_3 <= 1
c4: x_0_0 + x_2_0 <= 1
c5: x_0_1 + x_2_1 <= 1
c6: x_0_2 + x_2_2 <= 1
c7: x_0_3 + x_2_3 <= 1
c8: x_0_0 + x_3_0 <= 1
c9: x_0_1 + x_3_1 <= 1
c10: x_0_2 + x_3_2 <= 1
c11: x_0_3 + x_3_3 <= 1
c12: x_0_0 + x_4_0 <= 1
c13: x_0_1 + x_4_1 <= 1
c14: x_0_2 + x_4_2 <= 1
c15: x_0_3 + x_4_3 <= 1
c16: x_0_0 + x_6_0 <= 1
c17: x_0_1 + x_6_1 <= 1
c18: x_0_2 + x_6_2 <= 1
c19: x_0_3 + x_6_3 <= 1
c20: x_1_0 + x_0_0 <= 1
c21: x_1_1 + x_0_1 <= 1
c22: x_1_2 + x_0_2 <= 1
c23: x_1_3 + x_0_3 <= 1
c24: x_1_0 + x_2_0 <= 1
c25: x_1_1 + x_2_1 <= 1
c26: x_1_2 + x_2_2 <= 1
c27: x_1_3 + x_2_3 <= 1
c28: x_1_0 + x_4_0 <= 1
c29: x_1_1 + x_4_1 <= 1
c30: x_1_2 + x_4_2 <= 1
c31: x_1_3 + x_4_3 <= 1
c32: x_1_0 + x_5_0 <= 1
c33: x_1_1 + x_5_1 <= 1
c34: x_1_2 + x_5_2 <= 1
c35: x_1_3 + x_5_3 <= 1
c36: x_1_0 + x_6_0 <= 1
c37: x_1_1 + x_6_1 <= 1
c38: x_1_2 + x_6_2 <= 1
c39: x_1_3 + x_6_3 <= 1
c40: x_1_0 + x_7_0 <= 1
c41: x_1_1 + x_7_1 <= 1
c42: x_1_2 + x_7_2 <= 1
c43: x_1_3 + x_7_3 <= 1
c44: x_1_0 + x_8_0 <= 1
c45: x_1_1 + x_8_1 <= 1
c46: x_1_2 + x_8_2 <= 1
c47: x_1_3 + x_8_3 <= 1
c48: x_2_0 + x_0_0 <= 1
c49: x_2_1 + x_0_1 <= 1
c50: x_2_2 + x_0_2 <= 1
c51: x_2_3 + x_0_3 <= 1
c52: x_2_0 + x_1_0 <= 1
c53: x_2_1 + x_1_1 <= 1
c54: x_2_2 + x_1_2 <= 1
c55: x_2_3 + x_1_3 <= 1
c56: x_2_0 + x_3_0 <= 1
c57: x_2_1 + x_3_1 <= 1
c58: x_2_2 + x_3_2 <= 1
c59: x_2_3 + x_3_3 <= 1
c60: x_2_0 + x_5_0 <= 1
c61: x_2_1 + x_5_1 <= 1
c62: x_2_2 + x_5_2 <= 1
c63: x_2_3 + x_5_3 <= 1
c64: x_2_0 + x_6_0 <= 1
c65: x_2_1 + x_6_1 <= 1
c66: x_2_2 + x_6_2 <= 1
c67: x_2_3 + x_6_3 <= 1
c68: x_2_0 + x_7_0 <= 1
c69: x_2_1 + x_7_1 <= 1
c70: x_2_2 + x_7_2 <= 1
c71: x_2_3 + x_7_3 <= 1
c72: x_2_0 + x_8_0 <= 1
c73: x_2_1 + x_8_1 <= 1
c74: x_2_2 + x_8_2 <= 1
c75: x_2_3 + x_8_3 <= 1
c76: x_3_0 + x_0_0 <= 1
c77: x_3_1 + x_0_1 <= 1
c78: x_3_2 + x_0_2 <= 1
c79: x_3_3 + x_0_3 <= 1
c80: x_3_0 + x_2_0 <= 1
c81: x_3_1 + x_2_1 <= 1
c82: x_3_2 + x_2_2 <= 1
c83: x_3_3 + x_2_3 <= 1
c84: x_3_0 + x_4_0 <= 1
c85: x_3_1 + x_4_1 <= 1
c86: x_3_2 + x_4_2 <= 1
c87: x_3_3 + x_4_3 <= 1
c88: x_3_0 + x_5_0 <= 1
c89: x_3_1 + x_5_1 <= 1
c90: x_3_2 + x_5_2 <= 1
c91: x_3_3 + x_5_3 <= 1
c92: x_3_0 + x_6_0 <= 1
c93: x_3_1 + x_6_1 <= 1
c94: x_3_2 + x_6_2 <= 1
c95: x_3_3 + x_6_3 <= 1
c96: x_3_0 + x_7_0 <= 1
c97: x_3_1 + x_7_1 <= 1
c98: x_3_2 + x_7_2 <= 1
c99: x_3_3 + x_7_3 <= 1
c100: x_4_0 + x_0_0 <= 1
c101: x_4_1 + x_0_1 <= 1
c102: x_4_2 + x_0_2 <= 1
c103: x_4_3 + x_0_3 <= 1
c104: x_4_0 + x_1_0 <= 1
c105: x_4_1 + x_1_1 <= 1
c106: x_4_2 + x_1_2 <= 1
c107: x_4_3 + x_1_3 <= 1
c108: x_4_0 + x_3_0 <= 1
c109: x_4_1 + x_3_1 <= 1
c110: x_4_2 + x_3_2 <= 1
c111: x_4_3 + x_3_3 <= 1
c112: x_4_0 + x_6_0 <= 1
c113: x_4_1 + x_6_1 <= 1
c114: x_4_2 + x_6_2 <= 1
c115: x_4_3 + x_6_3 <= 1
c116: x_4_0 + x_8_0 <= 1
c117: x_4_1 + x_8_1 <= 1
c118: x_4_2 + x_8_2 <= 1
c119: x_4_3 + x_8_3 <= 1
c120: x_5_0 + x_1_0 <= 1
c121: x_5_1 + x_1_1 <= 1
c122: x_5_2 + x_1_2 <= 1
c123: x_5_3 + x_1_3 <= 1
c124: x_5_0 + x_2_0 <= 1
c125: x_5_1 + x_2_1 <= 1
c126: x_5_2 + x_2_2 <= 1
c127: x_5_3 + x_2_3 <= 1
c128: x_5_0 + x_3_0 <= 1
c129: x_5_1 + x_3_1 <= 1
c130: x_5_2 + x_3_2 <= 1
c131: x_5_3 + x_3_3 <= 1
c132: x_5_0 + x_6_0 <= 1
c133: x_5_1 + x_6_1 <= 1
c134: x_5_2 + x_6_2 <= 1
c135: x_5_3 + x_6_3 <= 1
c136: x_5_0 + x_8_0 <= 1
c137: x_5_1 + x_8_1 <= 1
c138: x_5_2 + x_8_2 <= 1
c139: x_5_3 + x_8_3 <= 1
c140: x_6_0 + x_0_0 <= 1
c141: x_6_1 + x_0_1 <= 1
c142: x_6_2 + x_0_2 <= 1
c143: x_6_3 + x_0_3 <= 1
c144: x_6_0 + x_1_0 <= 1
c145: x_6_1 + x_1_1 <= 1
c146: x_6_2 + x_1_2 <= 1
c147: x_6_3 + x_1_3 <= 1
c148: x_6_0 + x_2_0 <= 1
c149: x_6_1 + x_2_1 <= 1
c150: x_6_2 + x_2_2 <= 1
c151: x_6_3 + x_2_3 <= 1
c152: x_6_0 + x_3_0 <= 1
c153: x_6_1 + x_3_1 <= 1
c154: x_6_2 + x_3_2 <= 1
c155: x_6_3 + x_3_3 <= 1
c156: x_6_0 + x_4_0 <= 1
c157: x_6_1 + x_4_1 <= 1
c158: x_6_2 + x_4_2 <= 1
c159: x_6_3 + x_4_3 <= 1
c160: x_6_0 + x_5_0 <= 1
c161: x_6_1 + x_5_1 <= 1
c162: x_6_2 + x_5_2 <= 1
c163: x_6_3 + x_5_3 <= 1
c164: x_6_0 + x_7_0 <= 1
c165: x_6_1 + x_7_1 <= 1
c166: x_6_2 + x_7_2 <= 1
c167: x_6_3 + x_7_3 <= 1
c168: x_6_0 + x_8_0 <= 1
c169: x_6_1 + x_8_1 <= 1
c170: x_6_2 + x_8_2 <= 1
c171: x_6_3 + x_8_3 <= 1
c172: x_7_0 + x_1_0 <= 1
c173: x_7_1 + x_1_1 <= 1
c174: x_7_2 + x_1_2 <= 1
c175: x_7_3 + x_1_3 <= 1
c176: x_7_0 + x_2_0 <= 1
c177: x_7_1 + x_2_1 <= 1
c178: x_7_2 + x_2_2 <= 1
c179: x_7_3 + x_2_3 <= 1
c180: x_7_0 + x_3_0 <= 1
c181: x_7_1 + x_3_1 <= 1
c182: x_7_2 + x_3_2 <= 1
c183: x_7_3 + x_3_3 <= 1
c184: x_7_0 + x_6_0 <= 1
c185: x_7_1 + x_6_1 <= 1
c186: x_7_2 + x_6_2 <= 1
c187: x_7_3 + x_6_3 <= 1
c188: x_7_0 + x_8_0 <= 1
c189: x_7_1 + x_8_1 <= 1
c190: x_7_2 + x_8_2 <= 1
c191: x_7_3 + x_8_3 <= 1
c192: x_8_0 + x_1_0 <= 1
c193: x_8_1 + x_1_1 <= 1
c194: x_8_2 + x_1_2 <= 1
c195: x_8_3 + x_1_3 <= 1
c196: x_8_0 + x_2_0 <= 1
c197: x_8_1 + x_2_1 <= 1
c198: x_8_2 + x_2_2 <= 1
c199: x_8_3 + x_2_3 <= 1
c200: x_8_0 + x_4_0 <= 1
c201: x_8_1 + x_4_1 <= 1
c202: x_8_2 + x_4_2 <= 1
c203: x_8_3 + x_4_3 <= 1
c204: x_8_0 + x_5_0 <= 1
c205: x_8_1 + x_5_1 <= 1
c206: x_8_2 + x_5_2 <= 1
c207: x_8_3 + x_5_3 <= 1
c208: x_8_0 + x_7_0 <= 1
c209: x_8_1 + x_7_1 <= 1
c210: x_8_2 + x_7_2 <= 1
c211: x_8_3 + x_7_3 <= 1




Binary

x_0_0 x_0_1 x_0_2 x_0_3 x_1_0 x_1_1 x_1_2 x_1_3 x_2_0 x_2_1 x_2_2 x_2_3 x_3_0 x_3_1 x_3_2 x_3_3 x_4_0 x_4_1 x_4_2 x_4_3 x_5_0 x_5_1 x_5_2 x_5_3 x_6_0 x_6_1 x_6_2 x_6_3 x_7_0 x_7_1 x_7_2 x_7_3 x_8_0 x_8_1 x_8_2 x_8_3

 


End
